NAME: tsp20_21
COMMENT: 20-tsp problem (Padberg/Rinaldi)
TYPE: TSP
DIMENSION: 20
EDGE_WEIGHT_TYPE : EUC_2D
NODE_COORD_SECTION
1 31 22
2 15 0
3 35 35
4 26 17
5 4 0
6 27 9
7 11 36
8 10 38
9 8 15
10 5 27
11 14 18
12 0 16
13 19 30
14 16 35
15 33 12
16 17 17
17 32 34
18 32 20
19 32 25
20 16 19
